r = [
0,16,177,109,189,84,149,36,156,101,101,110,160,90,22,185,158,53,127,121,58,185,38,92,122,4,0
];
p = [
0,15,22,24,1,16,1,16,18,20,11,25,1,15,2,30,28,11,20,29,18,15,4,14,21,13,0
];
e = [
0,4,14,3,11,9,12,8,8,12,8,19,18,16,6,15,8,10,2,15,19,17,6,12,12,4,0
];
d = [
0,251,385,378,309,232,288,256,320,298,302,248,368,291,149,416,271,314,346,314,248,287,228,268,291,229,431
];
d_bar = [
0,259,396,390,310,240,289,264,329,308,308,261,369,299,150,431,285,320,356,329,257,295,230,275,302,236,431
];
w = [
0,0.5,1.272727273,0.25,11,1.125,12,1,0.888888889,1.2,1.333333333,1.461538462,18,2,6,1,0.571428571,1.666666667,0.2,1,2.111111111,2.125,3,1.714285714,1.090909091,0.571428571,0
];
